1598308
61,36,52,43,13,9,17,56,32,51,21,30,27,49,35,58,15,62,1,16,26,44,64,19,46,23,60,2,20,37,63,66,6,42,45,33,54,25,65,10,5,40,29,24,28,59,22,48,18,4,39,55,31,41,11,0,53,12,3,47,8,57,14,7,67,34,50,38,61